1 0 1 0
0 0 2 0
2 0 2 1
3 0 1 8
1 1 2 8
4 0 2 13
0 1 0 1
3 1 0 13
5 0 1 13
2 1 3 6
5 1 3 16
3 2 2 22
4 1 1 22
1 2 4 13
2 2 5 10
2 3 0 18
4 2 4 25
2 4 1 27
5 2 5 19
2 5 4 30
5 3 0 28
3 3 3 27
3 4 4 37
0 2 1 28
1 3 5 28
5 4 4 45
5 5 2 49
4 3 5 38
1 4 0 38
0 3 3 34
4 4 0 48
0 4 5 42
3 5 5 45
1 5 3 48
0 5 4 49
4 5 3 52

